\ Model RRP_copy
\ LP format - for model browsing. Use MPS format to capture full model detail.
Maximize
 
Subject To
 R1074: t_ki[9,28] - t_ki[9,51] <= -66.22185573511359
 R11582: 42 x_kij[9,9,28] + t_ki[9,9] - t_ki[9,28] <= -8.924269734491148
 R13184: t_ki[9,51] <= 150
 R13198: t_ki[9,65] >= 120
 R25108: - t_ki[9,9] + t_ki[9,65] <= 21
Bounds
 t_ki[9,9] free
 t_ki[9,28] free
 t_ki[9,51] free
 t_ki[9,65] free
Binaries
 x_kij[9,9,28]
End
